8
53 58 40 21 73 72 74 22 75 56 23 41 89
26 12 80 68 29 24 54 55 25 39 4 67
28 76 77 3 79 33 81 9 71 35 34 78 50
27 69 1 70 30 20 51 66 65 32 90 63 10
52 88 31 62 11 19 47 48 7 49 64
6 96 99 5 84 17 45 8 82 18 83 60 61 16 86 46 36
94 59 92 37 98 100 91 85 93 44 38
13 95 97 87 2 57 15 43 42 14
